131
10000
3284
644
3164
3171
1212
460
997
1950
3423
3876
1151
1735
4406
2769
3745
2240
1289
258
804
2491
2075
3526
4402
1701
2146
1111
4846
1154
458
2727
1302
3044
2648
4087
3208
964
1524
1181
858
2106
1644
1065
1813
3541
3063
866
634
1144
2363
4571
3259
2302
169
2699
4730
2466
1961
3668
305
849
444
49
4219
2060
527
1152
2522
2731
2540
1545
1850
362
4542
3228
332
2821
1290
1310
3729
608
1822
3923
2885
4879
1073
4048
1457
390
3723
1371
1816
3806
3111
324
3675
2145
1961
1696
2714
4993
2274
338
519
2733
1574
1819
4231
4482
743
3
233
2592
1878
2211
2733
2680
3240
4655
3925
1986
4106
4611
3365
1360
4410
1458
1736
510
4927
4808
2938
